DIMACS_lns/graph-1000-154.col
p edge 1000 1845
e 1 379
e 1 541
e 1 394
e 1 68
e 1 268
e 1 575
e 2 452
e 2 847
e 2 177
e 2 998
e 4 210
e 4 664
e 4 281
e 4 855
e 4 746
e 4 698
e 4 816
e 4 114
e 4 28
e 5 324
e 5 536
e 5 576
e 6 12
e 6 284
e 6 487
e 6 512
e 7 239
e 7 526
e 7 903
e 7 424
e 8 98
e 8 324
e 8 759
e 8 127
e 8 883
e 8 382
e 8 582
e 10 877
e 10 970
e 10 598
e 10 790
e 10 642
e 11 961
e 11 177
e 11 202
e 12 68
e 12 600
e 12 490
e 12 498
e 12 306
e 13 229
e 13 712
e 13 967
e 13 946
e 14 742
e 14 542
e 14 204
e 14 636
e 14 511
e 14 296
e 15 439
e 15 416
e 15 696
e 17 706
e 17 118
e 17 105
e 17 589
e 20 676
e 20 110
e 20 760
e 20 133
e 20 335
e 21 465
e 21 706
e 21 649
e 21 817
e 24 339
e 24 928
e 24 133
e 26 95
e 26 587
e 26 480
e 27 704
e 27 865
e 27 698
e 28 946
e 28 928
e 28 361
e 28 109
e 29 544
e 29 821
e 29 566
e 30 207
e 30 138
e 30 463
e 31 894
e 31 945
e 31 614
e 31 979
e 31 290
e 33 697
e 33 894
e 33 297
e 33 675
e 33 287
e 33 227
e 33 458
e 34 410
e 34 850
e 34 810
e 35 911
e 35 219
e 35 940
e 36 701
e 36 72
e 36 294
e 36 239
e 36 942
e 36 639
e 36 54
e 36 939
e 36 85
e 39 614
e 39 602
e 39 516
e 40 758
e 40 457
e 40 824
e 41 49
e 41 304
e 41 371
e 42 980
e 42 932
e 42 997
e 42 509
e 43 436
e 43 862
e 43 696
e 43 958
e 43 566
e 43 402
e 44 458
e 44 883
e 44 937
e 44 801
e 45 219
e 45 226
e 45 817
e 45 875
e 45 325
e 46 187
e 46 316
e 46 237
e 46 351
e 47 664
e 47 720
e 47 495
e 47 471
e 47 949
e 47 999
e 48 676
e 48 945
e 48 392
e 48 354
e 48 336
e 48 386
e 49 249
e 49 63
e 50 630
e 50 124
e 50 443
e 50 103
e 52 445
e 52 262
e 52 332
e 53 793
e 53 198
e 53 143
e 53 846
e 54 103
e 54 421
e 54 463
e 54 406
e 55 837
e 55 346
e 55 118
e 55 515
e 55 378
e 55 720
e 55 254
e 56 831
e 56 522
e 56 639
e 57 271
e 57 896
e 57 439
e 57 621
e 57 229
e 57 520
e 59 556
e 59 580
e 59 560
e 59 668
e 59 621
e 61 525
e 61 676
e 61 500
e 61 237
e 63 697
e 63 282
e 64 513
e 64 453
e 64 498
e 64 308
e 64 550
e 66 117
e 66 293
e 66 487
e 67 161
e 67 422
e 67 469
e 67 814
e 68 90
e 68 153
e 69 276
e 69 340
e 69 762
e 69 669
e 69 808
e 69 306
e 69 479
e 69 189
e 69 874
e 71 718
e 71 317
e 71 557
e 71 995
e 71 168
e 71 175
e 72 214
e 72 152
e 72 521
e 72 460
e 72 76
e 73 386
e 73 561
e 73 767
e 73 445
e 73 560
e 74 407
e 74 833
e 74 332
e 74 621
e 75 460
e 75 991
e 75 493
e 75 922
e 76 390
e 76 144
e 76 125
e 76 500
e 76 544
e 78 391
e 78 797
e 78 436
e 78 452
e 78 906
e 79 377
e 79 576
e 79 396
e 79 205
e 80 772
e 80 221
e 80 528
e 81 760
e 81 720
e 81 92
e 81 766
e 82 551
e 82 999
e 82 762
e 82 283
e 83 455
e 83 416
e 83 688
e 84 598
e 84 166
e 84 978
e 84 961
e 84 570
e 84 477
e 85 562
e 85 880
e 85 203
e 85 319
e 85 129
e 85 673
e 86 979
e 86 668
e 86 683
e 86 940
e 87 139
e 87 409
e 87 538
e 87 891
e 87 980
e 88 430
e 88 729
e 88 480
e 88 346
e 88 345
e 89 699
e 89 345
e 89 817
e 89 791
e 90 668
e 90 628
e 90 720
e 90 124
e 90 507
e 90 468
e 90 557
e 92 379
e 92 449
e 92 918
e 93 434
e 93 818
e 93 893
e 93 212
e 93 944
e 93 478
e 93 579
e 95 835
e 95 172
e 95 659
e 95 252
e 96 263
e 96 253
e 96 879
e 97 198
e 97 972
e 97 366
e 97 144
e 97 260
e 98 691
e 98 206
e 98 804
e 100 649
e 100 109
e 100 729
e 100 468
e 101 436
e 101 332
e 101 996
e 103 771
e 104 544
e 104 932
e 104 349
e 104 443
e 104 205
e 105 251
e 105 436
e 106 113
e 106 742
e 106 714
e 109 345
e 109 150
e 109 227
e 109 347
e 110 985
e 110 798
e 110 746
e 110 698
e 110 394
e 110 325
e 110 630
e 112 969
e 112 775
e 112 448
e 113 687
e 113 520
e 114 506
e 114 196
e 114 746
e 114 687
e 116 320
e 116 808
e 116 364
e 116 903
e 116 178
e 117 679
e 117 208
e 117 586
e 117 323
e 117 872
e 118 451
e 118 145
e 118 210
e 119 726
e 119 274
e 119 388
e 119 908
e 119 534
e 120 671
e 120 686
e 120 639
e 120 616
e 122 718
e 122 474
e 122 621
e 122 231
e 122 357
e 122 806
e 123 556
e 123 927
e 123 468
e 123 377
e 124 260
e 124 324
e 124 953
e 124 273
e 124 878
e 125 999
e 125 274
e 127 345
e 127 168
e 128 436
e 128 554
e 128 558
e 128 516
e 128 884
e 129 502
e 129 766
e 130 813
e 130 347
e 130 556
e 130 246
e 131 576
e 131 313
e 131 839
e 131 785
e 133 830
e 133 891
e 133 462
e 133 178
e 133 261
e 134 741
e 134 340
e 134 354
e 134 375
e 135 938
e 135 786
e 135 960
e 135 433
e 135 616
e 136 583
e 136 161
e 136 146
e 136 556
e 136 817
e 137 335
e 137 392
e 137 156
e 137 571
e 137 204
e 138 411
e 138 359
e 138 805
e 139 229
e 139 366
e 139 279
e 139 842
e 139 958
e 140 615
e 140 963
e 140 698
e 140 846
e 140 868
e 140 434
e 140 938
e 140 468
e 141 193
e 141 552
e 141 871
e 143 453
e 143 280
e 143 634
e 143 272
e 143 539
e 143 869
e 143 612
e 143 315
e 144 253
e 144 695
e 144 686
e 144 361
e 144 552
e 144 210
e 145 542
e 145 926
e 145 640
e 145 262
e 145 440
e 145 273
e 145 840
e 145 912
e 145 508
e 146 250
e 146 460
e 149 809
e 149 395
e 149 901
e 149 335
e 150 213
e 150 966
e 151 717
e 151 724
e 151 241
e 152 950
e 152 253
e 153 262
e 153 595
e 153 924
e 153 817
e 154 661
e 154 797
e 154 542
e 155 897
e 155 547
e 155 398
e 156 787
e 156 891
e 156 628
e 156 999
e 156 225
e 156 535
e 156 857
e 157 597
e 157 686
e 157 771
e 159 830
e 159 329
e 159 586
e 159 317
e 160 700
e 160 859
e 160 630
e 160 188
e 161 558
e 161 946
e 161 706
e 161 992
e 161 318
e 161 182
e 163 335
e 163 943
e 163 368
e 163 768
e 165 395
e 165 989
e 165 197
e 166 712
e 166 395
e 167 800
e 167 793
e 167 392
e 167 877
e 167 323
e 167 550
e 167 518
e 168 491
e 168 694
e 172 446
e 172 271
e 172 927
e 172 801
e 173 543
e 173 653
e 173 957
e 173 178
e 173 281
e 173 217
e 173 229
e 173 460
e 173 379
e 175 551
e 175 177
e 177 922
e 177 936
e 177 278
e 178 320
e 178 922
e 178 732
e 179 192
e 179 397
e 179 959
e 182 407
e 182 884
e 182 549
e 182 307
e 183 682
e 183 241
e 183 790
e 187 835
e 187 897
e 187 926
e 187 503
e 188 758
e 188 561
e 188 557
e 188 850
e 188 476
e 189 457
e 189 746
e 189 889
e 189 203
e 189 214
e 189 224
e 189 696
e 192 334
e 192 892
e 193 538
e 193 594
e 193 451
e 193 534
e 193 918
e 193 530
e 196 909
e 196 855
e 196 364
e 196 786
e 196 429
e 196 912
e 196 569
e 197 760
e 197 490
e 198 356
e 198 939
e 198 622
e 198 576
e 198 932
e 198 560
e 198 223
e 199 656
e 199 810
e 199 554
e 199 779
e 199 506
e 199 465
e 201 691
e 201 463
e 201 402
e 202 932
e 202 906
e 203 433
e 204 516
e 204 410
e 205 816
e 205 858
e 205 985
e 206 216
e 206 485
e 206 848
e 206 717
e 206 781
e 206 796
e 207 381
e 207 609
e 208 632
e 208 404
e 208 772
e 210 766
e 210 925
e 211 234
e 211 790
e 211 757
e 211 491
e 212 867
e 212 282
e 213 308
e 213 227
e 213 569
e 213 993
e 213 864
e 213 741
e 214 925
e 214 649
e 214 932
e 214 277
e 216 788
e 216 313
e 217 775
e 217 462
e 217 874
e 219 372
e 221 810
e 221 542
e 221 432
e 221 692
e 222 549
e 222 247
e 222 468
e 223 327
e 223 627
e 223 278
e 224 826
e 224 690
e 224 990
e 224 323
e 224 500
e 225 778
e 225 848
e 225 541
e 226 659
e 226 934
e 226 878
e 227 276
e 227 861
e 227 838
e 227 865
e 227 869
e 229 870
e 230 349
e 230 827
e 230 257
e 230 812
e 230 535
e 230 357
e 231 734
e 231 760
e 231 253
e 234 358
e 234 733
e 234 718
e 236 670
e 236 908
e 236 288
e 237 394
e 239 908
e 239 448
e 239 676
e 241 334
e 241 897
e 241 284
e 241 296
e 241 934
e 242 735
e 242 933
e 242 379
e 242 344
e 242 801
e 243 601
e 243 290
e 243 383
e 243 758
e 244 989
e 244 538
e 244 636
e 244 807
e 244 856
e 244 841
e 245 853
e 245 432
e 245 422
e 245 282
e 246 452
e 246 407
e 247 454
e 247 424
e 247 693
e 247 829
e 247 273
e 248 751
e 248 690
e 248 361
e 248 840
e 249 359
e 249 695
e 249 668
e 249 656
e 249 710
e 250 737
e 250 579
e 250 312
e 250 796
e 251 700
e 251 343
e 251 309
e 251 738
e 251 378
e 251 979
e 251 606
e 251 468
e 251 897
e 252 709
e 252 804
e 252 576
e 252 312
e 252 858
e 252 381
e 253 695
e 253 842
e 253 619
e 253 620
e 253 489
e 254 713
e 254 259
e 254 957
e 254 975
e 257 983
e 257 709
e 259 961
e 259 530
e 259 336
e 259 504
e 260 341
e 260 380
e 260 461
e 261 644
e 261 857
e 262 907
e 262 571
e 263 929
e 263 369
e 263 604
e 263 507
e 268 857
e 268 714
e 268 696
e 269 925
e 269 927
e 269 848
e 269 813
e 271 277
e 271 381
e 271 404
e 272 969
e 272 558
e 273 359
e 273 868
e 273 373
e 274 276
e 274 912
e 274 417
e 274 939
e 274 421
e 275 334
e 275 513
e 275 786
e 275 422
e 276 679
e 276 363
e 276 685
e 277 517
e 277 540
e 277 451
e 277 573
e 277 582
e 277 400
e 278 420
e 278 424
e 278 397
e 278 983
e 279 635
e 279 416
e 279 802
e 279 766
e 280 692
e 280 419
e 281 505
e 281 792
e 282 444
e 282 932
e 282 812
e 282 628
e 283 765
e 283 710
e 284 641
e 284 463
e 284 525
e 284 654
e 287 483
e 287 878
e 287 980
e 288 456
e 288 765
e 290 454
e 291 462
e 291 642
e 291 864
e 291 503
e 293 973
e 293 992
e 293 796
e 294 406
e 294 582
e 294 640
e 294 807
e 295 857
e 295 741
e 295 796
e 295 369
e 295 394
e 296 436
e 297 917
e 297 953
e 297 325
e 297 918
e 297 842
e 297 736
e 299 946
e 299 863
e 299 354
e 299 746
e 304 813
e 304 697
e 305 601
e 305 330
e 305 806
e 306 441
e 306 515
e 306 691
e 306 534
e 307 327
e 307 665
e 307 568
e 308 412
e 309 618
e 309 336
e 309 363
e 309 434
e 310 835
e 310 521
e 310 787
e 312 822
e 312 759
e 312 700
e 312 609
e 312 380
e 312 586
e 312 767
e 313 755
e 313 606
e 313 769
e 314 508
e 314 419
e 314 515
e 314 664
e 315 366
e 315 363
e 315 318
e 315 784
e 315 469
e 316 957
e 316 723
e 316 951
e 316 638
e 317 320
e 317 973
e 318 997
e 318 508
e 318 404
e 318 734
e 319 913
e 319 846
e 319 978
e 323 704
e 323 365
e 323 972
e 324 567
e 324 629
e 324 620
e 324 908
e 325 887
e 325 866
e 325 993
e 327 615
e 327 950
e 328 476
e 328 585
e 328 659
e 328 449
e 328 907
e 329 552
e 329 819
e 329 608
e 329 383
e 329 853
e 330 622
e 330 830
e 332 966
e 332 706
e 334 349
e 334 452
e 335 594
e 336 559
e 337 581
e 337 699
e 337 838
e 337 816
e 337 535
e 339 797
e 339 936
e 339 378
e 339 829
e 339 933
e 340 463
e 340 887
e 341 959
e 341 964
e 342 961
e 342 542
e 342 970
e 343 438
e 343 781
e 344 702
e 344 641
e 346 431
e 346 960
e 346 913
e 347 642
e 347 734
e 349 436
e 349 629
e 349 724
e 351 438
e 351 991
e 351 690
e 351 742
e 354 908
e 354 924
e 354 622
e 355 420
e 355 391
e 355 568
e 355 716
e 355 956
e 355 559
e 355 690
e 355 932
e 356 692
e 356 396
e 356 903
e 357 385
e 357 379
e 357 507
e 358 387
e 358 500
e 359 388
e 359 458
e 359 702
e 359 400
e 360 867
e 360 516
e 360 841
e 360 462
e 360 373
e 361 378
e 361 816
e 363 559
e 363 922
e 363 959
e 364 806
e 364 733
e 364 751
e 364 587
e 365 632
e 365 958
e 365 957
e 366 556
e 366 463
e 366 770
e 366 428
e 366 444
e 368 809
e 368 832
e 369 732
e 371 659
e 371 806
e 371 448
e 372 435
e 372 891
e 372 746
e 372 564
e 372 620
e 373 900
e 375 601
e 375 701
e 377 710
e 377 743
e 377 781
e 378 853
e 378 452
e 379 487
e 379 432
e 380 496
e 380 697
e 380 816
e 381 509
e 381 760
e 381 798
e 382 968
e 382 483
e 382 649
e 383 907
e 385 607
e 385 837
e 386 964
e 387 529
e 387 624
e 388 516
e 388 818
e 388 987
e 389 901
e 389 949
e 389 730
e 390 580
e 390 870
e 390 995
e 390 437
e 390 900
e 390 541
e 391 634
e 391 770
e 392 796
e 392 845
e 392 848
e 393 414
e 393 483
e 393 508
e 394 562
e 394 920
e 394 491
e 394 801
e 394 824
e 395 616
e 395 635
e 395 615
e 395 627
e 396 673
e 396 856
e 396 685
e 397 665
e 398 653
e 398 713
e 399 734
e 399 669
e 399 744
e 400 624
e 400 557
e 400 685
e 400 573
e 400 732
e 400 847
e 402 576
e 402 476
e 404 463
e 406 947
e 406 999
e 406 945
e 406 549
e 406 970
e 407 862
e 407 770
e 407 469
e 408 901
e 408 720
e 408 997
e 408 675
e 409 545
e 409 790
e 410 634
e 410 434
e 411 420
e 411 920
e 411 816
e 412 907
e 412 833
e 412 628
e 414 697
e 414 802
e 414 873
e 414 641
e 416 737
e 416 816
e 417 552
e 417 724
e 419 450
e 419 441
e 420 569
e 420 880
e 421 805
e 421 609
e 424 433
e 424 604
e 424 947
e 424 581
e 426 571
e 426 730
e 426 514
e 428 924
e 428 951
e 429 541
e 429 522
e 430 798
e 430 871
e 430 772
e 431 796
e 431 703
e 431 534
e 432 626
e 432 602
e 432 911
e 432 852
e 432 925
e 433 889
e 434 705
e 434 809
e 435 875
e 435 788
e 436 453
e 436 682
e 437 859
e 437 615
e 437 864
e 437 721
e 438 712
e 438 874
e 439 784
e 439 850
e 440 701
e 440 567
e 440 887
e 441 592
e 441 656
e 441 549
e 441 532
e 443 869
e 444 822
e 445 998
e 446 639
e 446 567
e 446 491
e 446 956
e 446 493
e 448 925
e 448 528
e 448 792
e 448 673
e 448 891
e 449 582
e 450 630
e 450 870
e 451 583
e 451 796
e 451 504
e 452 685
e 453 859
e 453 779
e 453 688
e 454 831
e 455 636
e 455 545
e 456 567
e 456 641
e 456 487
e 457 521
e 458 528
e 458 833
e 458 878
e 459 737
e 459 841
e 459 465
e 460 495
e 460 883
e 461 629
e 461 1000
e 461 978
e 462 707
e 462 692
e 463 956
e 463 538
e 465 797
e 465 680
e 465 695
e 465 618
e 468 590
e 469 746
e 469 903
e 469 842
e 469 556
e 471 680
e 471 581
e 471 511
e 471 477
e 471 682
e 471 644
e 474 900
e 474 602
e 474 529
e 474 996
e 474 743
e 474 542
e 474 598
e 474 825
e 475 632
e 475 819
e 475 571
e 476 762
e 476 610
e 477 947
e 477 658
e 477 942
e 478 693
e 478 547
e 479 480
e 479 550
e 480 929
e 483 900
e 483 935
e 483 991
e 483 557
e 485 949
e 485 730
e 487 744
e 487 521
e 487 980
e 489 986
e 489 548
e 490 786
e 491 936
e 491 809
e 491 663
e 493 518
e 493 989
e 495 567
e 495 688
e 496 884
e 496 543
e 498 892
e 498 610
e 498 996
e 500 935
e 500 630
e 500 612
e 500 636
e 501 635
e 501 978
e 501 682
e 502 874
e 502 505
e 502 826
e 502 985
e 503 514
e 503 866
e 504 640
e 505 926
e 505 946
e 506 673
e 506 609
e 507 801
e 509 552
e 511 830
e 511 541
e 511 857
e 511 966
e 512 841
e 512 934
e 512 911
e 513 695
e 513 940
e 514 973
e 515 562
e 516 784
e 516 778
e 516 532
e 517 734
e 517 894
e 517 624
e 517 801
e 518 560
e 518 889
e 518 985
e 518 683
e 518 863
e 519 913
e 519 1000
e 519 571
e 520 928
e 521 638
e 522 740
e 522 743
e 522 590
e 525 899
e 525 793
e 525 641
e 526 682
e 526 831
e 528 798
e 528 534
e 528 620
e 528 884
e 528 683
e 529 629
e 529 547
e 529 613
e 529 799
e 530 778
e 530 712
e 530 558
e 530 690
e 530 869
e 532 993
e 532 892
e 532 886
e 532 858
e 533 788
e 533 561
e 533 567
e 534 797
e 534 668
e 534 721
e 534 909
e 536 606
e 536 780
e 536 567
e 538 670
e 539 687
e 539 581
e 540 663
e 540 919
e 540 950
e 541 761
e 541 601
e 542 909
e 542 832
e 543 556
e 543 605
e 544 635
e 544 871
e 545 829
e 545 556
e 545 617
e 545 863
e 547 720
e 548 804
e 548 989
e 548 558
e 548 855
e 549 956
e 549 705
e 550 971
e 550 871
e 551 995
e 551 737
e 551 786
e 551 780
e 551 949
e 552 929
e 554 800
e 554 797
e 554 710
e 556 642
e 558 591
e 559 897
e 559 951
e 559 758
e 560 967
e 560 614
e 560 873
e 561 642
e 561 597
e 562 710
e 564 771
e 564 911
e 566 829
e 567 767
e 567 706
e 567 874
e 567 622
e 567 690
e 567 794
e 567 761
e 568 652
e 568 797
e 570 899
e 570 590
e 573 889
e 575 622
e 575 742
e 575 877
e 579 585
e 579 859
e 579 857
e 579 816
e 580 654
e 580 892
e 580 619
e 580 920
e 580 890
e 580 976
e 581 825
e 581 702
e 583 655
e 585 868
e 585 940
e 586 816
e 586 852
e 586 799
e 587 998
e 587 682
e 587 863
e 589 720
e 589 813
e 590 760
e 590 609
e 591 992
e 591 987
e 591 614
e 591 956
e 591 619
e 592 624
e 592 733
e 592 916
e 593 603
e 593 616
e 593 598
e 594 838
e 594 819
e 595 875
e 595 716
e 597 805
e 597 768
e 599 963
e 599 925
e 599 778
e 600 821
e 600 620
e 601 754
e 601 999
e 602 805
e 603 776
e 603 975
e 604 769
e 604 814
e 605 878
e 605 976
e 605 847
e 606 675
e 607 893
e 607 700
e 607 949
e 608 958
e 608 868
e 609 900
e 609 959
e 609 983
e 609 784
e 610 880
e 610 755
e 612 757
e 613 703
e 613 717
e 613 851
e 614 953
e 616 669
e 616 705
e 617 676
e 617 812
e 617 802
e 618 772
e 618 627
e 619 826
e 620 894
e 620 902
e 621 769
e 621 961
e 621 698
e 622 900
e 622 759
e 622 892
e 624 997
e 624 819
e 626 837
e 626 736
e 626 907
e 627 649
e 627 804
e 629 861
e 630 812
e 630 729
e 632 676
e 634 716
e 634 750
e 634 871
e 634 741
e 634 818
e 635 639
e 635 758
e 636 983
e 636 833
e 636 794
e 638 909
e 638 751
e 638 754
e 639 865
e 640 865
e 644 823
e 644 932
e 644 1000
e 649 889
e 652 679
e 652 757
e 653 833
e 653 932
e 653 863
e 654 668
e 655 775
e 655 808
e 656 935
e 656 754
e 658 851
e 658 944
e 661 963
e 661 730
e 663 911
e 663 896
e 664 869
e 665 879
e 669 827
e 669 935
e 670 949
e 671 706
e 671 856
e 673 686
e 680 816
e 680 723
e 682 812
e 687 918
e 687 874
e 687 972
e 687 937
e 688 845
e 688 883
e 691 919
e 692 886
e 693 917
e 694 801
e 694 996
e 695 874
e 697 830
e 699 707
e 700 907
e 702 716
e 703 704
e 704 798
e 704 741
e 705 956
e 705 784
e 706 997
e 706 754
e 707 762
e 709 900
e 712 738
e 712 788
e 713 865
e 714 818
e 714 813
e 714 816
e 716 932
e 717 781
e 717 758
e 717 764
e 720 916
e 721 825
e 721 735
e 723 757
e 724 947
e 724 851
e 726 822
e 726 989
e 729 927
e 729 953
e 729 778
e 729 922
e 729 944
e 730 924
e 732 878
e 733 769
e 735 920
e 736 859
e 738 809
e 738 801
e 740 784
e 740 802
e 740 903
e 740 868
e 741 761
e 742 935
e 743 758
e 744 972
e 748 933
e 748 938
e 748 906
e 750 797
e 750 835
e 751 838
e 751 790
e 755 996
e 755 819
e 757 838
e 757 922
e 758 976
e 758 788
e 759 893
e 760 957
e 761 937
e 764 913
e 764 861
e 765 924
e 766 841
e 766 917
e 767 964
e 767 927
e 767 875
e 768 942
e 769 942
e 769 814
e 769 875
e 769 968
e 772 908
e 772 785
e 772 823
e 772 953
e 775 924
e 776 928
e 776 788
e 778 926
e 778 808
e 778 866
e 779 890
e 780 785
e 784 845
e 784 929
e 787 839
e 787 912
e 787 862
e 787 936
e 791 835
e 791 872
e 792 922
e 792 798
e 793 911
e 794 853
e 797 998
e 798 845
e 799 833
e 800 919
e 800 879
e 802 870
e 802 810
e 804 913
e 804 986
e 806 867
e 807 838
e 807 946
e 807 969
e 809 839
e 810 852
e 810 840
e 810 970
e 813 826
e 813 912
e 814 971
e 814 848
e 816 971
e 816 975
e 818 959
e 819 963
e 821 933
e 823 932
e 823 968
e 824 972
e 826 883
e 826 991
e 827 897
e 827 837
e 832 927
e 835 997
e 835 856
e 838 902
e 840 920
e 842 943
e 842 896
e 845 912
e 848 991
e 848 851
e 851 940
e 851 966
e 852 907
e 853 960
e 853 886
e 853 896
e 855 856
e 856 999
e 861 883
e 862 987
e 863 892
e 864 973
e 864 890
e 864 936
e 868 963
e 871 959
e 872 957
e 873 938
e 874 875
e 874 934
e 875 990
e 878 964
e 878 999
e 879 967
e 883 975
e 884 944
e 884 961
e 886 902
e 887 945
e 887 906
e 887 978
e 890 943
e 891 995
e 891 972
e 893 935
e 899 938
e 899 979
e 913 960
e 916 998
e 916 971
e 917 996
e 921 945
e 921 961
e 921 986
e 924 983
e 928 957
e 950 997
e 990 991
